unsat
( c0
  c1
  c101
  c102
  c107
  c116
  c12
  c122
  c126
  c13
  c131
  c135
  c138
  c142
  c144
  c15
  c151
  c153
  c157
  c160
  c164
  c173
  c179
  c18
  c182
  c2
  c208
  c21
  c210
  c215
  c224
  c228
  c230
  c232
  c234
  c237
  c239
  c246
  c250
  c252
  c256
  c259
  c261
  c263
  c265
  c268
  c272
  c274
  c281
  c283
  c290
  c292
  c30
  c31
  c32
  c337
  c36
  c365
  c371
  c376
  c381
  c385
  c387
  c39
  c392
  c393
  c396
  c40
  c402
  c414
  c418
  c42
  c426
  c43
  c436
  c440
  c443
  c445
  c45
  c453
  c458
  c46
  c463
  c467
  c47
  c471
  c473
  c49
  c50
  c502
  c503
  c504
  c512
  c52
  c53
  c530
  c532
  c553
  c554
  c557
  c558
  c559
  c560
  c561
  c562
  c563
  c565
  c566
  c568
  c569
  c570
  c571
  c572
  c578
  c582
  c587
  c591
  c595
  c597
  c598
  c600
  c607
  c610
  c614
  c615
  c617
  c618
  c623
  c626
  c627
  c629
  c630
  c632
  c634
  c636
  c637
  c642
  c645
  c646
  c649
  c651
  c653
  c657
  c66
  c662
  c663
  c664
  c665
  c667
  c668
  c673
  c676
  c677
  c678
  c679
  c68
  c90
  c91
  c92
  c93
  c94
  c95
  c96
  c97 )
